Welcome to the CBC MILP Solver 
Version: 2.10.12 
Build Date: Aug 20 2024 

command line - /opt/homebrew/bin/cbc computational_data/ensemble/lp/trial_001.lp seconds 10.0 solve solu computational_data/ensemble/solutions/trial_001.sol (default strategy 1)
seconds was changed from 1e+100 to 10
Continuous objective value is 10.6667 - 0.00 seconds
Cgl0003I 0 fixed, 0 tightened bounds, 296 strengthened rows, 0 substitutions
Cgl0003I 0 fixed, 0 tightened bounds, 283 strengthened rows, 0 substitutions
Cgl0003I 0 fixed, 0 tightened bounds, 282 strengthened rows, 0 substitutions
Cgl0003I 0 fixed, 0 tightened bounds, 253 strengthened rows, 0 substitutions
Cgl0003I 0 fixed, 0 tightened bounds, 154 strengthened rows, 0 substitutions
Cgl0003I 0 fixed, 0 tightened bounds, 86 strengthened rows, 0 substitutions
Cgl0003I 0 fixed, 0 tightened bounds, 66 strengthened rows, 0 substitutions
Cgl0003I 0 fixed, 0 tightened bounds, 40 strengthened rows, 0 substitutions
Cgl0003I 0 fixed, 0 tightened bounds, 21 strengthened rows, 0 substitutions
Cgl0004I processed model has 227 rows, 96 columns (96 integer (96 of which binary)) and 1647 elements
Cutoff increment increased from 1e-05 to 0.9999
Cbc0038I Initial state - 96 integers unsatisfied sum - 10.6667
Cbc0038I Pass   1: suminf.   10.66667 (96) obj. 10.6667 iterations 0
Cbc0038I Pass   2: suminf.    7.11111 (64) obj. 11.1111 iterations 34
Cbc0038I Pass   3: suminf.    7.11111 (64) obj. 11.1111 iterations 8
Cbc0038I Pass   4: suminf.    3.55556 (32) obj. 11.5556 iterations 30
Cbc0038I Pass   5: suminf.    3.55556 (32) obj. 11.5556 iterations 7
Cbc0038I Pass   6: suminf.    0.00000 (0) obj. 12 iterations 23
Cbc0038I Solution found of 12
Cbc0038I Before mini branch and bound, 0 integers at bound fixed and 0 continuous
Cbc0038I Full problem 227 rows 96 columns, reduced to 206 rows 96 columns - 4 fixed gives 93, 51 - ok now
Cbc0038I Full problem 227 rows 96 columns, reduced to 87 rows 51 columns
Cbc0038I Mini branch and bound did not improve solution (0.02 seconds)
Cbc0038I Round again with cutoff of 10.9668
Cbc0038I Pass   7: suminf.   10.66667 (96) obj. 10.6667 iterations 0
Cbc0038I Pass   8: suminf.    8.52643 (82) obj. 10.9668 iterations 6
Cbc0038I Pass   9: suminf.    8.52643 (82) obj. 10.9668 iterations 4
Cbc0038I Pass  10: suminf.    8.52643 (82) obj. 10.9668 iterations 11
Cbc0038I Pass  11: suminf.    8.52090 (80) obj. 10.9668 iterations 4
Cbc0038I Pass  12: suminf.    8.52090 (80) obj. 10.9668 iterations 1
Cbc0038I Pass  13: suminf.    8.52090 (80) obj. 10.9668 iterations 0
Cbc0038I Pass  14: suminf.    8.52090 (80) obj. 10.9668 iterations 3
Cbc0038I Pass  15: suminf.    8.52090 (80) obj. 10.9668 iterations 2
Cbc0038I Pass  16: suminf.    8.52090 (80) obj. 10.9668 iterations 3
Cbc0038I Pass  17: suminf.    8.52090 (80) obj. 10.9668 iterations 0
Cbc0038I Pass  18: suminf.    8.52090 (80) obj. 10.9668 iterations 3
Cbc0038I Pass  19: suminf.    8.52090 (80) obj. 10.9668 iterations 2
Cbc0038I Pass  20: suminf.    8.52090 (80) obj. 10.9668 iterations 3
Cbc0038I Pass  21: suminf.    8.52090 (80) obj. 10.9668 iterations 3
Cbc0038I Pass  22: suminf.    8.52090 (80) obj. 10.9668 iterations 3
Cbc0038I Pass  23: suminf.    8.52090 (80) obj. 10.9668 iterations 3
Cbc0038I Pass  24: suminf.    8.52090 (80) obj. 10.9668 iterations 1
Cbc0038I Pass  25: suminf.    8.52090 (80) obj. 10.9668 iterations 0
Cbc0038I Pass  26: suminf.    8.52090 (80) obj. 10.9668 iterations 5
Cbc0038I Pass  27: suminf.    8.52090 (80) obj. 10.9668 iterations 0
Cbc0038I Pass  28: suminf.    8.52090 (80) obj. 10.9668 iterations 9
Cbc0038I Pass  29: suminf.    8.52090 (80) obj. 10.9668 iterations 4
Cbc0038I Pass  30: suminf.    8.52090 (80) obj. 10.9668 iterations 3
Cbc0038I Pass  31: suminf.    8.52090 (80) obj. 10.9668 iterations 0
Cbc0038I Pass  32: suminf.    8.52090 (80) obj. 10.9668 iterations 3
Cbc0038I Pass  33: suminf.    8.52090 (80) obj. 10.9668 iterations 2
Cbc0038I Pass  34: suminf.    8.52090 (80) obj. 10.9668 iterations 3
Cbc0038I Pass  35: suminf.    8.52090 (80) obj. 10.9668 iterations 2
Cbc0038I Pass  36: suminf.    8.52090 (80) obj. 10.9668 iterations 1
Cbc0038I No solution found this major pass
Cbc0038I Before mini branch and bound, 0 integers at bound fixed and 0 continuous
Cbc0038I Full problem 227 rows 96 columns, reduced to 206 rows 96 columns - 5 fixed gives 87, 47 - ok now
Cbc0038I Mini branch and bound did not improve solution (0.03 seconds)
Cbc0038I After 0.03 seconds - Feasibility pump exiting with objective of 12 - took 0.01 seconds
Cbc0012I Integer solution of 12 found by feasibility pump after 0 iterations and 0 nodes (0.03 seconds)
Cbc0031I 12 added rows had average density of 16
Cbc0013I At root node, 24 cuts changed objective from 10.666667 to 12 in 1 passes
Cbc0014I Cut generator 0 (Probing) - 0 row cuts average 0.0 elements, 0 column cuts (0 active)  in 0.000 seconds - new frequency is -100
Cbc0014I Cut generator 1 (Gomory) - 12 row cuts average 16.0 elements, 0 column cuts (0 active)  in 0.000 seconds - new frequency is 1
Cbc0014I Cut generator 2 (Knapsack) - 0 row cuts average 0.0 elements, 0 column cuts (0 active)  in 0.000 seconds - new frequency is -100
Cbc0014I Cut generator 3 (Clique) - 0 row cuts average 0.0 elements, 0 column cuts (0 active)  in 0.000 seconds - new frequency is -100
Cbc0014I Cut generator 4 (MixedIntegerRounding2) - 0 row cuts average 0.0 elements, 0 column cuts (0 active)  in 0.000 seconds - new frequency is -100
Cbc0014I Cut generator 5 (FlowCover) - 0 row cuts average 0.0 elements, 0 column cuts (0 active)  in 0.000 seconds - new frequency is -100
Cbc0014I Cut generator 6 (TwoMirCuts) - 12 row cuts average 16.0 elements, 0 column cuts (0 active)  in 0.001 seconds - new frequency is -100
Cbc0001I Search completed - best objective 12, took 0 iterations and 0 nodes (0.04 seconds)
Cbc0035I Maximum depth 0, 0 variables fixed on reduced cost
Cuts at root node changed objective from 10.6667 to 12
Probing was tried 1 times and created 0 cuts of which 0 were active after adding rounds of cuts (0.000 seconds)
Gomory was tried 1 times and created 12 cuts of which 0 were active after adding rounds of cuts (0.000 seconds)
Knapsack was tried 1 times and created 0 cuts of which 0 were active after adding rounds of cuts (0.000 seconds)
Clique was tried 1 times and created 0 cuts of which 0 were active after adding rounds of cuts (0.000 seconds)
MixedIntegerRounding2 was tried 1 times and created 0 cuts of which 0 were active after adding rounds of cuts (0.000 seconds)
FlowCover was tried 1 times and created 0 cuts of which 0 were active after adding rounds of cuts (0.000 seconds)
TwoMirCuts was tried 1 times and created 12 cuts of which 0 were active after adding rounds of cuts (0.001 seconds)
ZeroHalf was tried 1 times and created 0 cuts of which 0 were active after adding rounds of cuts (0.002 seconds)

Result - Optimal solution found

Objective value:                12.00000000
Enumerated nodes:               0
Total iterations:               0
Time (CPU seconds):             0.04
Time (Wallclock seconds):       0.04

Total time (CPU seconds):       0.04   (Wallclock seconds):       0.04

